2 30
816 629 
0 76 66 74 84 69 79 2
1 93 94 32 29 53 74 1
2 1 4 72 75 77 44 2
3 88 89 47 44 97 8 2
4 1 2 53 53 95 71 2
5 79 84 26 30 100 39 2
6 77 75 1 2 64 7 2
7 23 14 53 52 93 86 2
8 49 55 26 22 53 83 2
9 84 84 40 31 67 59 2
10 43 46 92 92 45 53 1
11 86 93 1 4 40 80 2
12 92 94 41 37 71 98 1
13 64 54 1 1 13 75 2
14 89 79 1 5 11 44 2
15 50 55 74 77 99 8 2
16 18 11 95 90 25 73 2
17 35 38 27 33 68 20 2
18 93 91 22 14 2 27 2
19 7 12 96 87 52 75 2
20 23 15 28 22 33 72 2
21 39 46 1 4 99 11 1
22 75 66 17 17 28 25 1
23 71 73 51 55 25 99 1
24 47 55 64 73 76 36 1
25 45 42 58 57 44 53 2
26 18 12 54 55 46 94 1
27 63 70 10 8 66 81 2
28 19 16 34 38 54 70 2
29 106 97 62 68 92 47 2
